Running for instance ./models/rc202.txt
Generating routes...
Execution time:  0.14935905  minutes
Academic license - for non-commercial use only
Warning: constraint name "Cliente esta na rota" has a space
Optimize a model with 26 rows, 5000 columns and 43612 nonzeros
Variable types: 0 continuous, 5000 integer (0 binary)
Coefficient statistics:
  Matrix range     [1e+00, 1e+00]
  Objective range  [7e+01, 4e+02]
  Bounds range     [1e+00, 1e+00]
  RHS range        [1e+00, 2e+01]
Found heuristic solution: objective 1420.8179271
Presolve removed 0 rows and 2846 columns
Presolve time: 0.03s
Presolved: 26 rows, 2154 columns, 16311 nonzeros
Found heuristic solution: objective 1090.7890406
Variable types: 0 continuous, 2154 integer (2154 binary)

Root relaxation: objective 4.850082e+02, 65 iterations, 0.00 seconds

    Nodes    |    Current Node    |     Objective Bounds      |     Work
 Expl Unexpl |  Obj  Depth IntInf | Incumbent    BestBd   Gap | It/Node Time

     0     0  485.00817    0   20 1090.78904  485.00817  55.5%     -    0s
H    0     0                     692.2826048  485.00817  29.9%     -    0s
H    0     0                     550.7808702  485.00817  11.9%     -    0s
H    0     0                     526.8405525  485.00817  7.94%     -    0s
H    0     0                     524.5464018  485.00817  7.54%     -    0s
     0     0  501.37488    0   14  524.54640  501.37488  4.42%     -    0s
     0     0  501.37488    0   15  524.54640  501.37488  4.42%     -    0s
H    0     0                     516.1154399  501.37488  2.86%     -    0s
H    0     0                     505.4642608  501.37488  0.81%     -    0s
     0     0     cutoff    0       505.46426  505.46426  0.00%     -    0s

Cutting planes:
  Gomory: 1
  MIR: 2
  Zero half: 1

Explored 1 nodes (149 simplex iterations) in 0.08 seconds
Thread count was 8 (of 8 available processors)

Solution count 8: 505.464 516.115 524.546 ... 1176.63

Optimal solution found (tolerance 1.00e-04)
Best objective 5.054642607905e+02, best bound 5.054642607905e+02, gap 0.0000%
23 18
22 20 24 25
14 9 6 8
11 15 16 10 13 12 17 7 2 1 3
Distance: 505.46426079
Execution time:  0.156340733333  minutes
